p wcnf 108 131 132 
1 7 -34 0 
1 77 -40 0 
1 -101 -25 0 
1 66 -60 0 
1 88 106 0 
1 34 -101 0 
1 21 -42 0 
1 60 -75 0 
1 -49 -15 0 
1 -57 -42 0 
1 105 -47 0 
1 -77 19 0 
1 -107 -59 0 
1 100 -80 0 
1 -40 -68 0 
1 -94 73 0 
1 104 54 0 
1 46 -96 0 
1 -70 -7 0 
1 -12 87 0 
1 74 69 0 
1 52 -96 0 
1 -30 28 0 
1 95 14 0 
1 -105 -76 0 
1 6 -49 0 
1 5 -77 0 
1 -18 107 0 
1 -12 84 0 
1 -75 -23 0 
1 -2 -62 0 
1 -99 72 0 
1 -63 33 0 
1 -65 -78 0 
1 -14 -35 0 
1 99 -80 0 
1 65 -93 0 
1 55 80 0 
1 27 -81 0 
1 47 7 0 
1 -88 -49 0 
1 15 13 0 
1 67 63 0 
1 75 99 0 
1 82 -97 0 
1 107 -38 0 
1 -104 -70 0 
1 16 61 0 
1 -101 -24 0 
1 60 30 0 
1 -48 -37 0 
1 -56 107 0 
1 -106 57 0 
1 39 18 0 
1 25 41 0 
1 -49 72 0 
1 91 -11 0 
1 23 84 0 
1 50 -6 0 
1 106 -27 0 
1 22 34 0 
1 -21 -66 0 
1 -51 -63 0 
1 60 -18 0 
1 84 -31 0 
1 -102 -24 0 
1 -64 61 0 
1 -93 -6 0 
1 93 18 0 
1 54 76 0 
1 6 -15 0 
1 -11 28 0 
1 -43 -89 0 
1 -12 -91 0 
1 -55 -36 0 
1 95 11 0 
1 -26 59 0 
1 96 3 0 
1 -97 26 0 
1 -86 -85 0 
1 20 51 0 
1 -77 1 0 
1 47 68 0 
1 -3 -40 0 
1 -79 28 0 
1 -14 89 0 
1 24 74 0 
1 -15 39 0 
1 3 -107 0 
1 -40 -75 0 
1 -3 13 0 
1 -71 46 0 
1 -92 -43 0 
1 -37 31 0 
1 -57 29 0 
1 -20 88 0 
1 39 -108 0 
1 -17 32 0 
1 -55 87 0 
1 -95 -71 0 
1 -29 66 0 
1 88 37 0 
1 -61 -18 0 
1 30 -49 0 
1 59 17 0 
1 -85 -97 0 
1 45 -43 0 
1 -48 58 0 
1 -85 -97 0 
1 -54 -10 0 
1 106 19 0 
1 -79 -90 0 
1 8 81 0 
1 77 -108 0 
1 -84 -19 0 
1 90 101 0 
1 8 -96 0 
1 -58 7 0 
1 -71 89 0 
1 20 43 0 
1 12 -61 0 
1 -75 47 0 
1 -63 101 0 
1 24 67 0 
1 10 -80 0 
1 47 55 0 
1 -91 105 0 
1 13 -104 0 
1 -76 -15 0 
1 -103 -102 0 
1 107 104 0 
